10
0, 705, 877, 645, 255, 363, 444, 667, 469, 823
705, 0, 548, 880, 660, 382, 266, 828, 391, 646
877, 548, 0, 593, 671, 546, 639, 512, 415, 165
645, 880, 593, 0, 398, 570, 762, 82, 495, 439
255, 660, 671, 398, 0, 279, 451, 412, 311, 590
363, 382, 546, 570, 279, 0, 192, 544, 136, 538
444, 266, 639, 762, 451, 192, 0, 732, 290, 673
667, 828, 512, 82, 412, 544, 732, 0, 453, 356
469, 391, 415, 495, 311, 136, 290, 453, 0, 402
823, 646, 165, 439, 590, 538, 673, 356, 402, 0
